12 40 6 10
2 7 3 15 20 1 15 7 12 16 1 8 4 5 13 12 17 5 12 16 12 18 10 3 4 18 12 7 18 14 16 7 16 3 14 12 14 11 16 17 
4.96 1.92 10.3 3.46 14.24 14.29 2.61 7.39 9.29 0.05 14.69 8.42 13.2 3.13 3.27 9.92 10.56 6.32 14.7 11.78 4.41 12.04 7.99 15.58 2.95 4.51 1.4 1.48 5.91 1.7 12.6 5.2 11.52 1.94 12.29 7.42 11.96 7.79 9.1 1.43 
1.68 11.32 7.8 8.72 0.18 13.26 15.91 5.79 6.84 3.42 0.62 7.39 2.34 14.21 8.55 13.07 14.99 3.02 6.74 10.09 6.67 1.88 9.27 5.46 15.66 14.75 9.84 13.89 9.36 1.38 4.12 12.88 2.99 12.71 8.97 5.64 1.28 9.48 13.55 14.34 
15.06 0.17 11.76 4.96 6.07 1.1 2.93 11.74 14.37 6.55 3.66 10.76 12.17 1.11 9.28 6.73 1.07 13.01 15.56 2.45 0.77 1.59 2.99 9.06 9.83 3.02 7.29 10.44 8 12.48 5.9 6.79 8.41 14.52 3.69 0.84 0.47 7.94 4.92 11.87 
15.92 4.95 9.99 9.69 11.93 6.91 3.88 5.7 2.21 15.18 2.94 2.88 3.78 5.58 9.12 8.76 13.77 5.52 8.5 9.74 13.59 15.64 5.65 0.68 11.57 13.33 10.26 4.03 8.87 7.18 8.35 2.07 10.48 15.8 11.12 0.83 11.82 15.7 14.89 9.26 
14.71 8.45 0.42 7.45 0.35 6.34 15.51 8.94 0.68 2.77 7.46 9.87 9.87 3.99 1.53 4.32 6.86 8.66 12.71 14 0.81 9.71 5.29 3.11 6.71 10.78 14.48 15.41 5.91 8.7 10.5 12.15 15.18 10.03 0.07 10.48 2.09 15.52 4.37 7.67 
11.6 13.39 10.51 7.86 15.24 11.62 9.71 8.28 12.24 13.6 3.26 15.66 15.62 1.76 12.42 12.94 3.25 11.62 6.78 11.71 6.2 3.59 2.86 14.02 2.16 3.41 9.7 11.35 11.97 6.75 8.62 13.73 15.54 3.63 4.42 6.36 6.5 5.41 1.67 8.66 
8 8 8 8 8 8 8 8 8 8 8 8 8 8 8 8 8 8 8 8 8 8 8 8 8 8 8 8 8 8 8 8 8 8 8 8 8 8 8 8 
14.93 15.71 6.44 7.46 9.78 8.92 15.37 6.95 12.9 14.54 6.29 9.34 5.99 12.92 11.79 3.26 4.68 1.78 6.24 10.69 15.8 13.83 5.39 13.37 9.76 6.8 3.99 5.32 14.53 13.81 6.37 6.46 9.48 9.03 3.69 12.85 0.64 1.11 8.2 0.19 
12.05 15.85 2.53 6.23 4.63 8.36 1.48 4.83 2.72 5.63 12.29 2.58 2.46 0.12 11.61 0.98 11.82 12.14 2.46 7.2 5.84 9.85 11.17 5.15 15.68 9.55 6.15 11.77 10.75 4.89 11.17 5.32 7.51 7.57 8.35 7.65 5.5 3.93 1.39 14.57 
12.44 1.04 9.71 0.81 11.18 9.11 1.48 2.97 13.75 5.7 2.1 2.13 15.15 14.58 8.08 10.92 10.43 8.57 1.25 9.04 10.43 9.55 3.9 1.47 5.71 2.37 12.56 6.39 9.49 9.09 4.46 8.83 6.31 1.02 2.69 1.8 1.07 9.71 2.76 2.35 
4.35 0.15 15.09 2.77 14.5 3.99 10.61 6.95 5.17 8.98 5.62 7.44 12.82 12.54 4.62 0.29 15.25 14.7 11.9 4.56 10.11 2.3 1.84 7.97 11.88 4.67 0.34 2.2 5.25 14.3 15.85 0.06 9.85 6.93 1.42 2.23 9.7 11.26 14.47 9.09 
5.49 12.32 6.24 13.66 8.57 13.94 3.67 2.62 11.74 15.2 10.64 2.13 5.12 14.29 4.51 3.3 0.17 7.29 7.8 2.07 6.94 15.52 11.78 14.51 10.16 12.12 4.2 7.35 1.35 1.9 3.27 2.08 11.48 9.36 0.1 6.89 0.89 15.71 4.88 0.52 
1 1 1 1 1 1 1 1 1 1 1 1 1 1 1 1 1 1 1 1 1 1 1 1 1 1 1 1 1 1 1 1 1 1 1 1 1 1 1 1 
1 1 1 1 1 1 1 1 1 1 1 1 1 1 1 1 1 1 1 1 1 1 1 1 1 1 1 1 1 1 1 1 1 1 1 1 1 1 1 1 
1 1 1 1 1 1 1 1 1 1 1 1 1 1 1 1 1 1 1 1 1 1 1 1 1 1 1 1 1 1 1 1 1 1 1 1 1 1 1 1 
1 1 1 1 1 1 1 1 1 1 1 1 1 1 1 1 1 1 1 1 1 1 1 1 1 1 1 1 1 1 1 1 1 1 1 1 1 1 1 1 
1 1 1 1 1 1 1 1 1 1 1 1 1 1 1 1 1 1 1 1 1 1 1 1 1 1 1 1 1 1 1 1 1 1 1 1 1 1 1 1 
1 1 1 1 1 1 1 1 1 1 1 1 1 1 1 1 1 1 1 1 1 1 1 1 1 1 1 1 1 1 1 1 1 1 1 1 1 1 1 1 
1 1 1 1 1 1 1 1 1 1 1 1 1 1 1 1 1 1 1 1 1 1 1 1 1 1 1 1 1 1 1 1 1 1 1 1 1 1 1 1 
1 1 1 1 1 1 1 1 1 1 1 1 1 1 1 1 1 1 1 1 1 1 1 1 1 1 1 1 1 1 1 1 1 1 1 1 1 1 1 1 
1 1 1 1 1 1 1 1 1 1 1 1 1 1 1 1 1 1 1 1 1 1 1 1 1 1 1 1 1 1 1 1 1 1 1 1 1 1 1 1 
1 1 1 1 1 1 1 1 1 1 1 1 1 1 1 1 1 1 1 1 1 1 1 1 1 1 1 1 1 1 1 1 1 1 1 1 1 1 1 1 
1 1 1 1 1 1 1 1 1 1 1 1 1 1 1 1 1 1 1 1 1 1 1 1 1 1 1 1 1 1 1 1 1 1 1 1 1 1 1 1 
1 1 1 1 1 1 1 1 1 1 1 1 1 1 1 1 1 1 1 1 1 1 1 1 1 1 1 1 1 1 1 1 1 1 1 1 1 1 1 1 
0.01 0.01 0.01 0.01 0.01 0.01 0.01 0.01 0.01 0.01 0.01 0.01 0.01 0.01 0.01 0.01 0.01 0.01 0.01 0.01 0.01 0.01 0.01 0.01 0.01 0.01 0.01 0.01 0.01 0.01 0.01 0.01 0.01 0.01 0.01 0.01 0.01 0.01 0.01 0.01 
0.02 0.02 0.02 0.02 0.02 0.02 0.02 0.02 0.02 0.02 0.02 0.02 0.02 0.02 0.02 0.02 0.02 0.02 0.02 0.02 0.02 0.02 0.02 0.02 0.02 0.02 0.02 0.02 0.02 0.02 0.02 0.02 0.02 0.02 0.02 0.02 0.02 0.02 0.02 0.02 
0.03 0.03 0.03 0.03 0.03 0.03 0.03 0.03 0.03 0.03 0.03 0.03 0.03 0.03 0.03 0.03 0.03 0.03 0.03 0.03 0.03 0.03 0.03 0.03 0.03 0.03 0.03 0.03 0.03 0.03 0.03 0.03 0.03 0.03 0.03 0.03 0.03 0.03 0.03 0.03 
0.04 0.04 0.04 0.04 0.04 0.04 0.04 0.04 0.04 0.04 0.04 0.04 0.04 0.04 0.04 0.04 0.04 0.04 0.04 0.04 0.04 0.04 0.04 0.04 0.04 0.04 0.04 0.04 0.04 0.04 0.04 0.04 0.04 0.04 0.04 0.04 0.04 0.04 0.04 0.04 
0.05 0.05 0.05 0.05 0.05 0.05 0.05 0.05 0.05 0.05 0.05 0.05 0.05 0.05 0.05 0.05 0.05 0.05 0.05 0.05 0.05 0.05 0.05 0.05 0.05 0.05 0.05 0.05 0.05 0.05 0.05 0.05 0.05 0.05 0.05 0.05 0.05 0.05 0.05 0.05 
0.06 0.06 0.06 0.06 0.06 0.06 0.06 0.06 0.06 0.06 0.06 0.06 0.06 0.06 0.06 0.06 0.06 0.06 0.06 0.06 0.06 0.06 0.06 0.06 0.06 0.06 0.06 0.06 0.06 0.06 0.06 0.06 0.06 0.06 0.06 0.06 0.06 0.06 0.06 0.06 
0.07 0.07 0.07 0.07 0.07 0.07 0.07 0.07 0.07 0.07 0.07 0.07 0.07 0.07 0.07 0.07 0.07 0.07 0.07 0.07 0.07 0.07 0.07 0.07 0.07 0.07 0.07 0.07 0.07 0.07 0.07 0.07 0.07 0.07 0.07 0.07 0.07 0.07 0.07 0.07 
0.2 0.2 0.2 0.2 0.2 0.2 0.2 0.2 0.2 0.2 0.2 0.2 0.2 0.2 0.2 0.2 0.2 0.2 0.2 0.2 0.2 0.2 0.2 0.2 0.2 0.2 0.2 0.2 0.2 0.2 0.2 0.2 0.2 0.2 0.2 0.2 0.2 0.2 0.2 0.2 
0.4 0.4 0.4 0.4 0.4 0.4 0.4 0.4 0.4 0.4 0.4 0.4 0.4 0.4 0.4 0.4 0.4 0.4 0.4 0.4 0.4 0.4 0.4 0.4 0.4 0.4 0.4 0.4 0.4 0.4 0.4 0.4 0.4 0.4 0.4 0.4 0.4 0.4 0.4 0.4 
0.6 0.6 0.6 0.6 0.6 0.6 0.6 0.6 0.6 0.6 0.6 0.6 0.6 0.6 0.6 0.6 0.6 0.6 0.6 0.6 0.6 0.6 0.6 0.6 0.6 0.6 0.6 0.6 0.6 0.6 0.6 0.6 0.6 0.6 0.6 0.6 0.6 0.6 0.6 0.6 
0.8 0.8 0.8 0.8 0.8 0.8 0.8 0.8 0.8 0.8 0.8 0.8 0.8 0.8 0.8 0.8 0.8 0.8 0.8 0.8 0.8 0.8 0.8 0.8 0.8 0.8 0.8 0.8 0.8 0.8 0.8 0.8 0.8 0.8 0.8 0.8 0.8 0.8 0.8 0.8 
1 1 1 1 1 1 1 1 1 1 1 1 1 1 1 1 1 1 1 1 1 1 1 1 1 1 1 1 1 1 1 1 1 1 1 1 1 1 1 1 
